5 6 64
1 3 1 32 43 
5 2 1 2 2 2 3 5 1 5 2 8 25 25 32 32 47 52 56 56 63 
6 4 1 4 2 1 1 1 2 3 2 3 3 10 17 17 30 32 39 39 49 49 53 53 64 
1 1 3 55 64 
5 4 1 1 1 1 1 5 1 5 1 0 10 10 22 22 32 32 44 44 52 
5 2 1 3 1 3 1 3 2 1 3 0 8 8 28 28 32 43 49 49 55 
